jlh_hotel = 10; 

Nama_Hotel = {GrandMentengHotel,MegaMatra,RensaSofyan,ParkHotel,SantikaTMII,Balairung,Angkasa,BestWesternPremiereTheHive,FaveHotelPGC,Ibis};
golongan = {Bintang_1,Bintang_2,Bintang_3,Bintang_4};
jenis = {Hotel_Bintang};

hotel = array2d(Nama_Hotel,1..5, 
[
GrandMentengHotel              ,Bintang_3 ,Hotel_Bintang ,100, 100000,
MegaMatra                      ,Bintang_2 ,Hotel_Bintang ,180, 200000,
RensaSofyan                    ,Bintang_1 ,Hotel_Bintang ,30, 300000,
ParkHotel                      ,Bintang_3 ,Hotel_Bintang ,162, 400000,
SantikaTMII                    ,Bintang_3 ,Hotel_Bintang ,124, 500000,
Balairung                      ,Bintang_3 ,Hotel_Bintang ,100, 600000,
Angkasa                        ,Bintang_1 ,Hotel_Bintang ,35, 700000,
BestWesternPremiereTheHive     ,Bintang_4 ,Hotel_Bintang ,191, 800000,
FaveHotelPGC                   ,Bintang_3 ,Hotel_Bintang ,194, 900000,
Ibis                           ,Bintang_4 ,Hotel_Bintang ,240, 1000000,
]);